WARNING: for repeatability, setting FPU to use double precision
============================[ Problem Statistics ]=============================
|                                                                             |
|  Number of variables:           282                                         |
|  Number of clauses:            1147                                         |
|  Parse time:                   0.00 s                                       |
|                                                                             |
============================[ Search Statistics ]==============================
| Conflicts |          ORIGINAL         |          LEARNT          | Progress |
|           |    Vars  Clauses Literals |    Limit  Clauses Lit/Cl |          |
===============================================================================
|       100 |     282     1147     3319 |      420      100      8 |  0.001 % |
|       250 |     281     1138     3292 |      462      216      7 |  0.356 % |
===============================================================================
restarts              : 3
conflicts             : 349            (inf /sec)
decisions             : 435            (0.00 % random) (inf /sec)
propagations          : 16945          (inf /sec)
conflict literals     : 2354           (30.48 % deleted)
Memory used           : 19.00 MB
CPU time              : 0 s

UNSATISFIABLE
